c "417113.clq"
p edge 100 1344
e 1 17
e 1 18
e 1 19
e 1 20
e 1 21
e 1 22
e 1 23
e 1 27
e 1 28
e 1 37
e 1 39
e 1 59
e 1 93
e 1 99
e 2 17
e 2 18
e 2 19
e 2 20
e 2 22
e 2 29
e 2 31
e 2 32
e 2 38
e 2 41
e 2 72
e 2 83
e 2 86
e 2 99
e 3 17
e 3 18
e 3 19
e 3 20
e 3 24
e 3 25
e 3 26
e 3 27
e 3 28
e 3 32
e 3 33
e 3 41
e 3 43
e 3 45
e 3 50
e 3 53
e 3 59
e 3 62
e 3 66
e 3 75
e 3 76
e 3 82
e 3 84
e 3 89
e 3 91
e 3 93
e 3 94
e 3 99
e 4 17
e 4 18
e 4 19
e 4 20
e 4 22
e 4 23
e 4 24
e 4 26
e 4 27
e 4 28
e 4 29
e 4 30
e 4 32
e 4 33
e 4 34
e 4 35
e 4 36
e 4 37
e 4 40
e 4 45
e 4 47
e 4 50
e 4 56
e 4 57
e 4 58
e 4 64
e 4 70
e 4 78
e 4 83
e 4 93
e 4 95
e 5 17
e 5 18
e 5 21
e 5 23
e 5 24
e 5 26
e 5 30
e 5 34
e 5 37
e 5 42
e 5 43
e 5 49
e 5 62
e 5 70
e 5 71
e 5 74
e 5 75
e 5 78
e 5 79
e 5 83
e 5 92
e 5 98
e 5 99
e 6 17
e 6 18
e 6 19
e 6 20
e 6 21
e 6 22
e 6 25
e 6 28
e 6 29
e 6 34
e 6 37
e 6 39
e 6 40
e 6 42
e 6 45
e 6 47
e 6 53
e 6 54
e 6 58
e 6 60
e 6 63
e 6 73
e 6 78
e 6 79
e 7 17
e 7 19
e 7 21
e 7 22
e 7 23
e 7 24
e 7 29
e 7 41
e 7 51
e 7 52
e 7 60
e 7 77
e 7 95
e 8 17
e 8 18
e 8 20
e 8 21
e 8 24
e 8 25
e 8 27
e 8 31
e 8 33
e 8 34
e 8 37
e 8 38
e 8 44
e 8 51
e 8 52
e 8 69
e 8 70
e 8 72
e 8 75
e 8 80
e 8 83
e 8 88
e 8 93
e 8 96
e 8 97
e 8 98
e 9 17
e 9 18
e 9 19
e 9 22
e 9 24
e 9 27
e 9 29
e 9 33
e 9 51
e 9 54
e 9 57
e 9 61
e 9 63
e 9 65
e 9 68
e 9 70
e 9 76
e 9 77
e 9 98
e 10 17
e 10 18
e 10 19
e 10 20
e 10 21
e 10 22
e 10 23
e 10 24
e 10 26
e 10 28
e 10 30
e 10 36
e 10 41
e 10 42
e 10 55
e 10 57
e 10 61
e 10 70
e 10 71
e 10 74
e 10 75
e 10 83
e 10 97
e 11 17
e 11 18
e 11 19
e 11 20
e 11 21
e 11 23
e 11 25
e 11 28
e 11 33
e 11 35
e 11 36
e 11 38
e 11 39
e 11 40
e 11 52
e 11 54
e 11 57
e 11 62
e 11 64
e 11 75
e 11 79
e 11 86
e 11 92
e 11 93
e 12 17
e 12 18
e 12 19
e 12 20
e 12 21
e 12 22
e 12 23
e 12 24
e 12 25
e 12 27
e 12 29
e 12 30
e 12 31
e 12 32
e 12 35
e 12 41
e 12 43
e 12 44
e 12 46
e 12 47
e 12 49
e 12 53
e 12 55
e 12 57
e 12 58
e 12 61
e 12 62
e 12 63
e 12 71
e 12 74
e 12 76
e 12 86
e 12 88
e 12 91
e 12 95
e 12 97
e 13 17
e 13 18
e 13 19
e 13 20
e 13 21
e 13 22
e 13 23
e 13 25
e 13 26
e 13 27
e 13 29
e 13 32
e 13 36
e 13 38
e 13 40
e 13 42
e 13 43
e 13 48
e 13 51
e 13 53
e 13 54
e 13 56
e 13 57
e 13 60
e 13 65
e 13 69
e 13 70
e 13 73
e 13 79
e 13 82
e 13 83
e 13 92
e 14 17
e 14 18
e 14 19
e 14 20
e 14 21
e 14 22
e 14 23
e 14 24
e 14 25
e 14 26
e 14 28
e 14 29
e 14 31
e 14 32
e 14 33
e 14 46
e 14 48
e 14 50
e 14 52
e 14 56
e 14 57
e 14 82
e 14 84
e 14 86
e 14 88
e 14 91
e 14 92
e 14 95
e 14 96
e 15 17
e 15 18
e 15 19
e 15 20
e 15 21
e 15 23
e 15 25
e 15 29
e 15 39
e 15 42
e 15 44
e 15 46
e 15 47
e 15 48
e 15 55
e 15 56
e 15 58
e 15 60
e 15 66
e 15 69
e 15 86
e 15 93
e 15 96
e 15 99
e 16 17
e 16 18
e 16 19
e 16 20
e 16 21
e 16 22
e 16 24
e 16 25
e 16 26
e 16 28
e 16 29
e 16 31
e 16 32
e 16 33
e 16 38
e 16 42
e 16 43
e 16 45
e 16 53
e 16 55
e 16 56
e 16 58
e 16 60
e 16 61
e 16 69
e 16 85
e 16 89
e 16 93
e 17 18
e 17 19
e 17 20
e 17 21
e 17 22
e 17 23
e 17 24
e 17 25
e 17 26
e 17 27
e 17 28
e 17 29
e 17 30
e 17 31
e 17 32
e 17 33
e 17 34
e 17 36
e 17 38
e 17 39
e 17 40
e 17 41
e 17 42
e 17 43
e 17 45
e 17 46
e 17 47
e 17 48
e 17 50
e 17 52
e 17 53
e 17 55
e 17 56
e 17 57
e 17 58
e 17 59
e 17 60
e 17 63
e 17 64
e 17 65
e 17 66
e 17 67
e 17 68
e 17 70
e 17 72
e 17 73
e 17 76
e 17 77
e 17 78
e 17 79
e 17 80
e 17 81
e 17 82
e 17 83
e 17 84
e 17 85
e 17 87
e 17 89
e 17 94
e 17 95
e 17 100
e 18 19
e 18 20
e 18 21
e 18 22
e 18 23
e 18 24
e 18 25
e 18 26
e 18 27
e 18 28
e 18 30
e 18 31
e 18 32
e 18 33
e 18 36
e 18 37
e 18 40
e 18 41
e 18 45
e 18 48
e 18 49
e 18 50
e 18 55
e 18 57
e 18 59
e 18 63
e 18 65
e 18 66
e 18 68
e 18 72
e 18 77
e 18 81
e 18 84
e 18 87
e 18 88
e 18 89
e 18 96
e 18 99
e 19 20
e 19 21
e 19 22
e 19 23
e 19 24
e 19 25
e 19 26
e 19 27
e 19 28
e 19 30
e 19 31
e 19 33
e 19 34
e 19 35
e 19 37
e 19 38
e 19 39
e 19 40
e 19 41
e 19 42
e 19 44
e 19 45
e 19 47
e 19 49
e 19 51
e 19 52
e 19 53
e 19 54
e 19 55
e 19 57
e 19 58
e 19 59
e 19 60
e 19 62
e 19 64
e 19 65
e 19 66
e 19 67
e 19 73
e 19 74
e 19 78
e 19 79
e 19 81
e 19 95
e 19 99
e 20 21
e 20 22
e 20 23
e 20 25
e 20 26
e 20 27
e 20 28
e 20 29
e 20 30
e 20 31
e 20 32
e 20 34
e 20 35
e 20 36
e 20 38
e 20 39
e 20 41
e 20 42
e 20 43
e 20 44
e 20 45
e 20 46
e 20 48
e 20 51
e 20 54
e 20 58
e 20 59
e 20 61
e 20 62
e 20 63
e 20 64
e 20 65
e 20 66
e 20 70
e 20 71
e 20 73
e 20 76
e 20 77
e 20 78
e 20 79
e 20 83
e 20 84
e 20 87
e 20 90
e 20 93
e 20 94
e 20 96
e 20 97
e 20 98
e 20 100
e 21 22
e 21 23
e 21 24
e 21 25
e 21 26
e 21 27
e 21 28
e 21 30
e 21 31
e 21 33
e 21 35
e 21 36
e 21 38
e 21 40
e 21 41
e 21 44
e 21 46
e 21 49
e 21 50
e 21 51
e 21 53
e 21 54
e 21 59
e 21 62
e 21 68
e 21 69
e 21 70
e 21 72
e 21 75
e 21 77
e 21 79
e 21 87
e 21 88
e 21 90
e 21 92
e 21 93
e 21 94
e 21 98
e 21 99
e 22 23
e 22 24
e 22 26
e 22 28
e 22 29
e 22 30
e 22 31
e 22 35
e 22 36
e 22 39
e 22 40
e 22 41
e 22 42
e 22 44
e 22 45
e 22 46
e 22 50
e 22 58
e 22 68
e 22 69
e 22 75
e 22 76
e 22 77
e 22 94
e 23 24
e 23 25
e 23 26
e 23 27
e 23 30
e 23 31
e 23 32
e 23 33
e 23 34
e 23 35
e 23 36
e 23 37
e 23 38
e 23 39
e 23 41
e 23 44
e 23 46
e 23 47
e 23 48
e 23 50
e 23 51
e 23 55
e 23 56
e 23 58
e 23 60
e 23 64
e 23 67
e 23 69
e 23 71
e 23 72
e 23 73
e 23 76
e 23 82
e 23 84
e 23 85
e 23 86
e 23 88
e 23 90
e 23 91
e 23 93
e 23 98
e 23 99
e 24 25
e 24 26
e 24 27
e 24 29
e 24 30
e 24 32
e 24 33
e 24 34
e 24 35
e 24 37
e 24 38
e 24 42
e 24 43
e 24 52
e 24 54
e 24 55
e 24 56
e 24 60
e 24 62
e 24 70
e 24 73
e 24 74
e 24 80
e 24 81
e 24 86
e 24 88
e 24 95
e 24 96
e 24 97
e 25 26
e 25 27
e 25 28
e 25 30
e 25 34
e 25 35
e 25 36
e 25 37
e 25 38
e 25 39
e 25 40
e 25 41
e 25 42
e 25 44
e 25 46
e 25 47
e 25 56
e 25 62
e 25 64
e 25 70
e 25 76
e 25 77
e 25 79
e 25 80
e 25 88
e 25 89
e 25 90
e 25 91
e 25 92
e 25 98
e 25 100
e 26 27
e 26 28
e 26 29
e 26 30
e 26 31
e 26 32
e 26 34
e 26 35
e 26 36
e 26 37
e 26 40
e 26 41
e 26 43
e 26 45
e 26 47
e 26 48
e 26 50
e 26 52
e 26 55
e 26 57
e 26 61
e 26 63
e 26 66
e 26 67
e 26 68
e 26 76
e 26 80
e 26 81
e 26 82
e 26 89
e 26 90
e 26 94
e 26 95
e 26 96
e 26 97
e 26 100
e 27 30
e 27 32
e 27 35
e 27 37
e 27 38
e 27 40
e 27 42
e 27 43
e 27 48
e 27 49
e 27 51
e 27 53
e 27 54
e 27 63
e 27 67
e 27 68
e 27 69
e 27 77
e 27 78
e 27 82
e 27 85
e 27 92
e 27 95
e 27 98
e 28 29
e 28 31
e 28 33
e 28 34
e 28 36
e 28 47
e 28 51
e 28 53
e 28 54
e 28 55
e 28 57
e 28 59
e 28 62
e 28 66
e 28 67
e 28 71
e 28 73
e 28 75
e 28 78
e 28 80
e 28 83
e 28 88
e 28 100
e 29 30
e 29 31
e 29 32
e 29 33
e 29 34
e 29 36
e 29 37
e 29 38
e 29 39
e 29 40
e 29 45
e 29 47
e 29 49
e 29 50
e 29 51
e 29 59
e 29 61
e 29 62
e 29 63
e 29 64
e 29 67
e 29 68
e 29 69
e 29 72
e 29 73
e 29 78
e 29 81
e 29 83
e 29 86
e 29 88
e 29 89
e 29 94
e 29 100
e 30 31
e 30 34
e 30 37
e 30 39
e 30 50
e 30 56
e 30 65
e 30 69
e 30 75
e 30 76
e 30 80
e 30 81
e 30 85
e 30 88
e 30 91
e 30 92
e 30 97
e 30 98
e 30 99
e 30 100
e 31 32
e 31 34
e 31 35
e 31 36
e 31 39
e 31 43
e 31 44
e 31 46
e 31 48
e 31 50
e 31 52
e 31 63
e 31 64
e 31 65
e 31 66
e 31 67
e 31 70
e 31 71
e 31 74
e 31 76
e 31 80
e 31 82
e 31 87
e 31 88
e 31 93
e 32 33
e 32 35
e 32 40
e 32 42
e 32 43
e 32 44
e 32 46
e 32 48
e 32 49
e 32 55
e 32 59
e 32 61
e 32 63
e 32 64
e 32 65
e 32 66
e 32 67
e 32 69
e 32 73
e 32 75
e 32 78
e 32 82
e 32 85
e 32 86
e 32 87
e 32 90
e 32 94
e 32 97
e 32 98
e 33 34
e 33 35
e 33 37
e 33 38
e 33 39
e 33 40
e 33 43
e 33 44
e 33 45
e 33 55
e 33 56
e 33 58
e 33 62
e 33 63
e 33 68
e 33 76
e 33 77
e 33 79
e 33 80
e 33 81
e 33 84
e 33 85
e 33 86
e 33 91
e 33 92
e 33 95
e 33 96
e 33 100
e 34 35
e 34 36
e 34 41
e 34 45
e 34 50
e 34 52
e 34 59
e 34 66
e 34 71
e 34 78
e 34 80
e 34 88
e 34 96
e 34 97
e 34 99
e 35 39
e 35 40
e 35 44
e 35 46
e 35 47
e 35 48
e 35 49
e 35 54
e 35 56
e 35 57
e 35 58
e 35 63
e 35 68
e 35 74
e 35 77
e 35 80
e 35 82
e 35 96
e 36 37
e 36 44
e 36 46
e 36 47
e 36 49
e 36 50
e 36 52
e 36 53
e 36 54
e 36 56
e 36 61
e 36 71
e 36 90
e 37 38
e 37 39
e 37 43
e 37 47
e 37 49
e 37 50
e 37 52
e 37 53
e 37 58
e 37 60
e 37 61
e 37 64
e 37 67
e 37 74
e 37 75
e 37 78
e 37 87
e 37 90
e 38 41
e 38 43
e 38 44
e 38 46
e 38 64
e 38 73
e 38 80
e 38 81
e 38 83
e 38 86
e 38 87
e 38 88
e 38 89
e 38 90
e 38 92
e 38 94
e 39 43
e 39 47
e 39 51
e 39 56
e 39 60
e 39 71
e 39 74
e 39 79
e 39 85
e 39 94
e 40 42
e 40 45
e 40 48
e 40 49
e 40 52
e 40 59
e 40 65
e 40 67
e 40 68
e 40 74
e 40 80
e 40 85
e 40 92
e 40 95
e 40 98
e 40 100
e 41 42
e 41 45
e 41 48
e 41 51
e 41 55
e 41 57
e 41 62
e 41 63
e 41 70
e 41 76
e 41 78
e 41 84
e 42 44
e 42 52
e 42 53
e 42 54
e 42 57
e 42 61
e 42 65
e 42 78
e 42 83
e 43 48
e 43 49
e 43 55
e 43 57
e 43 67
e 43 69
e 43 72
e 43 82
e 43 84
e 43 86
e 43 91
e 43 98
e 44 45
e 44 46
e 44 47
e 44 48
e 44 49
e 44 53
e 44 55
e 44 58
e 44 80
e 44 92
e 44 99
e 45 46
e 45 49
e 45 51
e 45 54
e 45 56
e 45 62
e 45 66
e 45 76
e 45 85
e 45 91
e 45 98
e 45 100
e 46 49
e 46 50
e 46 51
e 46 60
e 46 61
e 46 62
e 46 63
e 46 65
e 46 68
e 46 69
e 46 71
e 46 73
e 46 76
e 46 79
e 46 80
e 46 81
e 46 82
e 46 89
e 46 94
e 47 51
e 47 54
e 47 59
e 47 64
e 47 71
e 47 83
e 47 89
e 47 92
e 47 97
e 48 52
e 48 53
e 48 54
e 48 60
e 48 61
e 48 66
e 48 68
e 48 70
e 48 71
e 48 78
e 48 85
e 48 87
e 48 88
e 48 100
e 49 52
e 49 60
e 49 69
e 49 72
e 49 75
e 49 87
e 49 89
e 49 90
e 50 64
e 50 91
e 50 94
e 51 53
e 51 58
e 51 59
e 51 61
e 51 63
e 51 66
e 51 68
e 51 77
e 51 81
e 51 87
e 51 88
e 51 91
e 51 96
e 51 98
e 51 100
e 52 59
e 52 65
e 52 71
e 52 74
e 52 84
e 52 97
e 53 56
e 53 60
e 53 66
e 53 67
e 53 72
e 53 77
e 53 81
e 53 87
e 53 95
e 53 96
e 54 59
e 54 74
e 54 79
e 54 95
e 55 61
e 55 65
e 55 70
e 55 72
e 55 74
e 55 80
e 55 82
e 55 86
e 55 91
e 56 67
e 56 79
e 56 97
e 57 58
e 57 62
e 57 65
e 57 70
e 57 71
e 57 72
e 57 75
e 57 78
e 57 91
e 58 60
e 58 69
e 58 73
e 58 93
e 59 61
e 59 64
e 59 66
e 59 67
e 59 68
e 59 69
e 59 72
e 59 73
e 59 75
e 59 84
e 59 85
e 59 87
e 59 89
e 59 100
e 60 65
e 60 72
e 60 85
e 60 89
e 60 90
e 61 73
e 61 83
e 61 95
e 61 96
e 61 99
e 62 90
e 62 91
e 63 64
e 63 72
e 63 82
e 63 83
e 63 84
e 63 100
e 64 74
e 64 81
e 64 83
e 64 85
e 64 91
e 65 68
e 65 77
e 65 91
e 65 94
e 66 67
e 66 74
e 66 75
e 66 77
e 66 93
e 66 97
e 68 73
e 69 85
e 69 89
e 70 71
e 70 72
e 70 75
e 70 89
e 70 90
e 70 94
e 71 76
e 71 77
e 71 79
e 71 81
e 71 86
e 71 87
e 71 90
e 71 92
e 71 93
e 72 92
e 72 96
e 73 74
e 73 82
e 73 84
e 73 87
e 74 90
e 75 79
e 75 90
e 76 81
e 76 82
e 76 99
e 77 81
e 77 98
e 78 86
e 78 92
e 78 99
e 79 84
e 79 85
e 79 97
e 79 100
e 80 86
e 80 97
e 80 100
e 81 84
e 81 99
e 82 84
e 82 93
e 83 87
e 84 89
e 84 93
e 86 94
e 88 97
e 89 95
e 90 95
e 91 96
e 92 96
e 92 98
e 93 94
